c Undirected Graph
p edge 35 118
e 7 1
e 9 1
e 8 2
e 16 2
e 35 2
e 24 3
e 29 3
e 9 5
e 28 5
e 24 6
e 35 6
e 2 10
e 3 10
e 4 10
e 8 10
e 11 10
e 16 10
e 17 10
e 22 10
e 24 10
e 25 10
e 26 10
e 29 10
e 31 10
e 33 10
e 34 10
e 35 10
e 1 12
e 2 12
e 4 12
e 5 12
e 8 12
e 9 12
e 10 12
e 11 12
e 16 12
e 18 12
e 22 12
e 24 12
e 25 12
e 26 12
e 28 12
e 29 12
e 34 12
e 35 12
e 2 13
e 3 13
e 5 13
e 8 13
e 10 13
e 18 13
e 21 13
e 22 13
e 24 13
e 30 13
e 31 13
e 34 13
e 35 13
e 2 14
e 11 14
e 16 14
e 18 14
e 19 14
e 25 14
e 26 14
e 29 14
e 30 14
e 33 14
e 34 14
e 35 14
e 8 15
e 26 15
e 29 15
e 1 18
e 2 18
e 3 18
e 5 18
e 7 18
e 8 18
e 9 18
e 10 18
e 11 18
e 16 18
e 22 18
e 24 18
e 25 18
e 26 18
e 34 18
e 35 18
e 5 20
e 8 20
e 21 20
e 34 20
e 28 23
e 3 25
e 11 25
e 24 25
e 29 25
e 33 25
e 35 25
e 4 27
e 5 27
e 8 27
e 22 27
e 11 30
e 26 30
e 22 31
e 4 32
e 8 32
e 11 32
e 16 32
e 24 32
e 29 32
e 35 32
e 7 33
e 9 33
e 24 33
e 24 35
